unsat
(forall ((A (_ BitVec 17))
         (B (_ BitVec 17))
         (C (_ BitVec 1))
         (D (_ BitVec 17))
         (E (_ BitVec 24))
         (F (_ BitVec 13))
         (G (_ BitVec 1))
         (H (_ BitVec 32))
         (I (_ BitVec 32))
         (J (_ BitVec 42))
         (K (_ BitVec 1))
         (L (_ BitVec 1))
         (M (_ BitVec 17))
         (N (_ BitVec 14))
         (O (_ BitVec 14))
         (P (_ BitVec 13))
         (Q (_ BitVec 14))
         (R (_ BitVec 10))
         (S (_ BitVec 17))
         (T (_ BitVec 1))
         (U (_ BitVec 1))
         (V (_ BitVec 24))
         (W (_ BitVec 1))
         (X (_ BitVec 1))
         (Y (_ BitVec 1))
         (Z (_ BitVec 17))
         (A1 (_ BitVec 51))
         (B1 (_ BitVec 1))
         (C1 (_ BitVec 10))
         (D1 (_ BitVec 1))
         (E1 (_ BitVec 17))
         (F1 (_ BitVec 17))
         (G1 (_ BitVec 1))
         (H1 (_ BitVec 17))
         (I1 (_ BitVec 14))
         (J1 (_ BitVec 17))
         (K1 (_ BitVec 1))
         (L1 (_ BitVec 17))
         (M1 (_ BitVec 14))
         (N1 (_ BitVec 3))
         (O1 (_ BitVec 10))
         (P1 (_ BitVec 10))
         (Q1 (_ BitVec 8))
         (R1 (_ BitVec 17))
         (S1 (_ BitVec 24))
         (T1 (_ BitVec 1))
         (U1 (_ BitVec 32))
         (V1 (_ BitVec 24))
         (W1 (_ BitVec 1)))
  (! (let ((a!1 (and (= ((_ extract 9 6) R) #x0)
                     (or (= L #b0) (= D1 #b1))
                     (= ((_ extract 9 2) C1) #x00)
                     (or (= P1 #b0000000000) (= U #b1))
                     (or (not (= U #b1)) (not (= N1 #b001)))
                     (or (not (= U #b1)) (= P1 #b0000000000))
                     (= ((_ extract 9 4) O1) #b000000))))
       (= (INV!slice!1 A
                       B
                       C
                       D
                       E
                       F
                       G
                       H
                       I
                       J
                       K
                       L
                       M
                       N
                       O
                       P
                       Q
                       R
                       S
                       T
                       U
                       V
                       W
                       X
                       Y
                       Z
                       A1
                       B1
                       C1
                       D1
                       E1
                       F1
                       G1
                       H1
                       I1
                       J1
                       K1
                       L1
                       M1
                       N1
                       O1
                       P1
                       Q1
                       R1
                       S1
                       T1
                       U1
                       V1
                       W1)
          a!1))
     :weight 0))
